#Thermal Conductivity of ZIF
units              real
dimension          3
boundary           p p p
atom_style         full 
bond_style         harmonic
angle_style        harmonic
dihedral_style     hybrid harmonic fourier
improper_style    cvff
#
read_restart         mix.restart.22000000
#
bond_coeff    1       177.545000      1.940000
bond_coeff    2       769.135000      1.260000
bond_coeff    3       539.250000      1.420000
bond_coeff    4       539.250000      1.430000
bond_coeff    5       539.250000      1.410000
bond_coeff    6       808.605000      1.260000
bond_coeff    7       764.180000      1.280000
bond_coeff    8       177.545000      1.880000
bond_coeff    9       601.895000      1.430000
bond_coeff    10      601.895000      1.420000
bond_coeff    11      539.250000      1.440000
bond_coeff    12      389.260000      1.530000
bond_coeff    13      523.760000      1.350000
bond_coeff    14      523.760000      1.320000
bond_coeff    15      349.795000      1.530000
bond_coeff    16      331.070000      1.110000
bond_coeff    17      331.070000      1.120000
bond_coeff    18      387.665000      1.530000
bond_coeff    19      349.795000      1.540000
bond_coeff    20      357.440000      0.950000
bond_coeff    21      331.070000      1.100000
bond_coeff    22      367.710000      1.530000
bond_coeff    23      354.485000      1.110000
bond_coeff    24      386.875000      1.530000
bond_coeff    25      545.920000      1.350000
bond_coeff    26      381.235000      0.950000
bond_coeff    27      349.795000      1.520000
bond_coeff    28      431.210000      1.530000
bond_coeff    29      523.760000      1.360000
bond_coeff    30      387.665000      1.540000
bond_coeff    31      545.920000      1.360000
bond_coeff    32      431.210000      1.540000
bond_coeff    33      357.440000      1.080000
bond_coeff    34      331.070000      1.090000
bond_coeff    35       330.600143      1.100000
bond_coeff    36       300.900096      1.540000
#   
angle_coeff  1        47.655115    109.471000
angle_coeff  2       294.685707    110.983000
angle_coeff  3       210.622371    126.145000
angle_coeff  4       293.562141    111.774000
angle_coeff  5       208.880497    126.640000
angle_coeff  6       290.306405    111.218000
angle_coeff  7       211.876912    125.805000
angle_coeff  8        80.117113    130.698000
angle_coeff  9       298.388623    110.624000
angle_coeff  10      206.418021    127.404000
angle_coeff  11      207.682361    126.833000
angle_coeff  12      296.676625    110.623000
angle_coeff  13      295.535612    110.800000
angle_coeff  14      209.252390    126.578000
angle_coeff  15      207.802581    126.870000
angle_coeff  16      293.536807    111.084000
angle_coeff  17      298.736377    110.576000
angle_coeff  18      209.738767    126.344000
angle_coeff  19      292.586998    111.200000
angle_coeff  20      208.014101    126.951000
angle_coeff  21      210.678537    126.152000
angle_coeff  22      281.113528    113.255000
angle_coeff  23      211.499522    125.954000
angle_coeff  24      300.771033    110.319000
angle_coeff  25      296.568356    110.640000
angle_coeff  26      208.343690    126.759000
angle_coeff  27      297.311185    110.790000
angle_coeff  28      209.337954    126.490000
angle_coeff  29      299.468690    110.520000
angle_coeff  30      208.221797    126.782000
angle_coeff  31      206.920889    127.056000
angle_coeff  32      294.756214    110.895000
angle_coeff  33      256.261472    117.474000
angle_coeff  34      208.795172    126.620000
angle_coeff  35      216.025335    124.779000
angle_coeff  36      294.825287    111.295000
angle_coeff  37      211.551147    125.854000
angle_coeff  38      303.598470    109.677000
angle_coeff  39      208.073375    126.739000
angle_coeff  40      301.429493    110.636000
angle_coeff  41      263.553059    115.634000
angle_coeff  42      209.617591    126.367000
angle_coeff  43      208.842973    126.695000
angle_coeff  44      284.015535    112.923000
angle_coeff  45      207.859943    126.666000
angle_coeff  46      293.496176    111.140000
angle_coeff  47      207.291109    127.098000
angle_coeff  48      233.226577    121.782000
angle_coeff  49      205.798040    127.512000
angle_coeff  50      288.337715    112.074000
angle_coeff  51      360.089388    126.108000
angle_coeff  52      269.028442    116.946000
angle_coeff  53      183.814771    122.611000
angle_coeff  54      263.642447    114.779000
angle_coeff  55      344.280115    115.755000
angle_coeff  56      211.662524    121.634000
angle_coeff  57      232.343212    122.611000
angle_coeff  58      139.915870    109.128000
angle_coeff  59       75.804254    111.381000
angle_coeff  60       75.518642    111.442000
angle_coeff  61       57.997132    108.923000
angle_coeff  62       59.515535    107.735000
angle_coeff  63       38.364723    108.133000
angle_coeff  64      192.381931    112.542000
angle_coeff  65       57.789914    109.167000
angle_coeff  66       59.032027    108.428000
angle_coeff  67       57.500239    109.136000
angle_coeff  68       57.367352    109.410000
angle_coeff  69       39.054493    108.057000
angle_coeff  70      205.884799    109.736000
angle_coeff  71      196.456023    111.671000
angle_coeff  72       58.733270    108.718000
angle_coeff  73       58.735421    108.649000
angle_coeff  74       57.026291    109.418000
angle_coeff  75       56.470602    109.774000
angle_coeff  76       38.458413    108.548000
angle_coeff  77      344.383843    115.716000
angle_coeff  78      211.367113    121.673000
angle_coeff  79      294.124044    106.647000
angle_coeff  80       76.347992    110.704000
angle_coeff  81       77.682361    109.935000
angle_coeff  82       57.430210    109.219000
angle_coeff  83       56.698136    109.747000
angle_coeff  84       36.537285    110.507000
angle_coeff  85      190.258126    112.950000
angle_coeff  86       57.811185    108.896000
angle_coeff  87       58.241874    108.579000
angle_coeff  88       58.052581    108.849000
angle_coeff  89       57.161329    109.517000
angle_coeff  90       38.877390    107.928000
angle_coeff  91      100.498566    110.550000
angle_coeff  92       57.427103    109.387000
angle_coeff  93       57.960803    108.995000
angle_coeff  94       57.211759    109.272000
angle_coeff  95       57.506931    109.058000
angle_coeff  96       37.524857    109.563000
angle_coeff  97       91.122132    119.988000
angle_coeff  98      152.464866    117.402000
angle_coeff  99       57.645793    109.511000
angle_coeff  100      56.553776    110.355000
angle_coeff  101      56.299952    110.501000
angle_coeff  102      38.531071    108.558000
angle_coeff  103      38.509799    108.510000
angle_coeff  104      37.719885    109.359000
angle_coeff  105     136.951482    110.321000
angle_coeff  106      83.566683    108.660000
angle_coeff  107     153.615918    111.581000
angle_coeff  108     126.011472    105.796000
angle_coeff  109      56.815727    109.614000
angle_coeff  110      36.982553    110.709000
angle_coeff  111     192.081501    112.528000
angle_coeff  112      57.480163    109.212000
angle_coeff  113      58.465822    108.461000
angle_coeff  114      56.645076    109.958000
angle_coeff  115      57.889579    108.996000
angle_coeff  116      39.417782    107.550000
angle_coeff  117     204.627151    109.998000
angle_coeff  118     116.201482    108.841000
angle_coeff  119     115.595841    109.093000
angle_coeff  120     196.527247    111.647000
angle_coeff  121      58.553059    108.821000
angle_coeff  122      58.777486    108.628000
angle_coeff  123      57.058317    109.361000
angle_coeff  124      56.619981    109.667000
angle_coeff  125      38.335564    108.662000
angle_coeff  126     296.366396    106.397000
angle_coeff  127      76.626434    110.536000
angle_coeff  128      77.486616    110.121000
angle_coeff  129      57.322419    109.259000
angle_coeff  130      56.695268    109.792000
angle_coeff  131      36.376673    110.640000
angle_coeff  132     189.787046    113.125000
angle_coeff  133      57.917304    108.854000
angle_coeff  134      58.441444    108.457000
angle_coeff  135      58.137906    108.884000
angle_coeff  136      57.286090    109.507000
angle_coeff  137      38.961042    107.882000
angle_coeff  138     101.372132    110.325000
angle_coeff  139      57.505975    109.400000
angle_coeff  140      57.912046    109.098000
angle_coeff  141      57.422084    109.217000
angle_coeff  142      57.466061    109.184000
angle_coeff  143      37.463910    109.604000
angle_coeff  144      57.798757    109.397000
angle_coeff  145      56.525335    110.400000
angle_coeff  146      56.254302    110.568000
angle_coeff  147      38.649379    108.478000
angle_coeff  148      38.564771    108.507000
angle_coeff  149      37.726338    109.441000
angle_coeff  150     136.489723    109.602000
angle_coeff  151      76.289914    110.729000
angle_coeff  152     143.888145    113.319000
angle_coeff  153      59.447180    107.641000
angle_coeff  154      58.750239    108.166000
angle_coeff  155      79.282744    107.184000
angle_coeff  156     178.297323    115.456000
angle_coeff  157     120.047801    107.337000
angle_coeff  158      59.499761    107.659000
angle_coeff  159      58.152725    108.528000
angle_coeff  160      59.467495    107.529000
angle_coeff  161      36.857792    110.305000
angle_coeff  162     195.939532    111.811000
angle_coeff  163      58.561185    108.735000
angle_coeff  164      58.854924    108.582000
angle_coeff  165      56.406549    109.862000
angle_coeff  166      57.299235    109.244000
angle_coeff  167      38.396033    108.541000
angle_coeff  168     293.195029    106.784000
angle_coeff  169      76.158461    110.749000
angle_coeff  170      77.805210    109.867000
angle_coeff  171      57.487094    109.189000
angle_coeff  172      56.757648    109.769000
angle_coeff  173      36.609465    110.411000
angle_coeff  174     190.539914    112.923000
angle_coeff  175      57.867113    108.873000
angle_coeff  176      58.373327    108.544000
angle_coeff  177      58.064054    108.821000
angle_coeff  178      57.080545    109.601000
angle_coeff  179      38.840344    107.958000
angle_coeff  180     100.608509    110.552000
angle_coeff  181      57.346797    109.441000
angle_coeff  182      58.072658    108.943000
angle_coeff  183      57.111616    109.399000
angle_coeff  184      57.612811    109.066000
angle_coeff  185      37.675191    109.422000
angle_coeff  186     136.683078    119.988000
angle_coeff  187      56.295889    110.500000
angle_coeff  188      57.664914    109.485000
angle_coeff  189      56.432361    110.418000
angle_coeff  190      38.255497    108.805000
angle_coeff  191      37.745937    109.337000
angle_coeff  192      38.826004    108.247000
angle_coeff  193      56.439771    110.503000
angle_coeff  194      57.164675    110.026000
angle_coeff  195      57.671606    109.566000
angle_coeff  196      37.485421    109.727000
angle_coeff  197      38.453394    108.588000
angle_coeff  198      38.756214    108.387000
angle_coeff  199     137.171606    109.837000
angle_coeff  200      76.330784    111.301000
angle_coeff  201      76.692639    111.169000
angle_coeff  202      57.360660    109.129000
angle_coeff  203     121.978011    106.590000
angle_coeff  204      38.125478    108.680000
angle_coeff  205     191.683078    112.453000
angle_coeff  206      58.577916    108.301000
angle_coeff  207      57.686663    108.974000
angle_coeff  208      57.677103    108.977000
angle_coeff  209      56.214388    110.107000
angle_coeff  210      39.010516    107.910000
angle_coeff  211     100.373088    110.407000
angle_coeff  212      56.556644    109.816000
angle_coeff  213      57.076243    109.390000
angle_coeff  214      57.025813    109.272000
angle_coeff  215      57.054015    109.222000
angle_coeff  216      38.152008    108.705000
angle_coeff  217     298.777964    106.438000
angle_coeff  218      77.931166    110.026000
angle_coeff  219      77.261711    110.483000
angle_coeff  220      57.710086    109.437000
angle_coeff  221      58.562141    108.888000
angle_coeff  222      35.931883    111.431000
angle_coeff  223     195.622132    112.325000
angle_coeff  224      58.574809    108.740000
angle_coeff  225      58.159656    109.074000
angle_coeff  226      57.807122    109.393000
angle_coeff  227      58.111616    109.198000
angle_coeff  228      38.849665    108.014000
angle_coeff  229     196.733031    111.822000
angle_coeff  230      58.669933    108.853000
angle_coeff  231      58.870459    108.641000
angle_coeff  232      57.478967    109.291000
angle_coeff  233      56.951243    109.623000
angle_coeff  234      38.477055    108.548000
angle_coeff  235     290.946702    107.111000
angle_coeff  236     192.867352    112.573000
angle_coeff  237     196.836759    111.809000
angle_coeff  238      58.494025    108.955000
angle_coeff  239      58.829589    108.613000
angle_coeff  240      57.726099    109.159000
angle_coeff  241      56.894120    109.688000
angle_coeff  242      38.445985    108.557000
angle_coeff  243     269.339149    116.946000
angle_coeff  244     183.784417    122.646000
angle_coeff  245     263.758126    114.707000
angle_coeff  246     344.437859    115.681000
angle_coeff  247     232.032505    122.646000
angle_coeff  248     137.451243    109.690000
angle_coeff  249      75.732553    111.269000
angle_coeff  250      75.624283    111.426000
angle_coeff  251      59.592973    107.543000
angle_coeff  252      57.961042    108.805000
angle_coeff  253      38.528203    107.991000
angle_coeff  254     191.919933    112.449000
angle_coeff  255      58.232553    108.846000
angle_coeff  256      57.915392    108.900000
angle_coeff  257      56.746415    109.750000
angle_coeff  258      57.559990    108.953000
angle_coeff  259      39.225860    107.832000
angle_coeff  260     100.099187    110.549000
angle_coeff  261      57.281071    109.194000
angle_coeff  262      56.505019    109.773000
angle_coeff  263      56.994264    109.428000
angle_coeff  264      57.082218    109.348000
angle_coeff  265      38.380975    108.516000
angle_coeff  266      96.360182    119.992000
angle_coeff  267     143.873327    117.398000
angle_coeff  268      57.692878    109.523000
angle_coeff  269      56.395554    110.476000
angle_coeff  270      56.999761    110.107000
angle_coeff  271      38.330784    108.689000
angle_coeff  272      38.684273    108.457000
angle_coeff  273      37.601816    109.547000
angle_coeff  274      91.113767    119.952000
angle_coeff  275     138.326721    109.435000
angle_coeff  276     149.980641    111.657000
angle_coeff  277      75.774379    111.322000
angle_coeff  278      59.429254    107.645000
angle_coeff  279      57.778203    108.942000
angle_coeff  280      38.734704    107.729000
angle_coeff  281     192.252151    112.441000
angle_coeff  282      58.310946    108.780000
angle_coeff  283      57.990201    108.899000
angle_coeff  284      57.027725    109.597000
angle_coeff  285      57.673757    108.990000
angle_coeff  286      39.060707    108.034000
angle_coeff  287      99.612811    110.811000
angle_coeff  288      57.277725    109.208000
angle_coeff  289      56.848948    109.555000
angle_coeff  290      56.603250    109.776000
angle_coeff  291      57.942878    108.788000
angle_coeff  292      38.243069    108.669000
angle_coeff  293     293.481836    106.855000
angle_coeff  294      78.811663    109.515000
angle_coeff  295      76.009560    110.962000
angle_coeff  296      57.282983    109.500000
angle_coeff  297      57.802820    109.023000
angle_coeff  298      36.310707    110.891000
angle_coeff  299     191.452199    112.756000
angle_coeff  300      58.306644    108.635000
angle_coeff  301      57.956740    108.881000
angle_coeff  302      57.193595    109.502000
angle_coeff  303      57.857314    108.994000
angle_coeff  304      38.856597    107.958000
angle_coeff  305     196.589627    111.706000
angle_coeff  306      56.978011    109.499000
angle_coeff  307      56.814293    109.564000
angle_coeff  308      58.889818    108.564000
angle_coeff  309      58.415392    108.852000
angle_coeff  310      38.312141    108.596000
angle_coeff  311      90.985899    120.015000
angle_coeff  312     152.404876    117.374000
angle_coeff  313      56.982792    110.032000
angle_coeff  314      57.548279    109.568000
angle_coeff  315      56.275574    110.553000
angle_coeff  316      38.707935    108.356000
angle_coeff  317      37.583413    109.558000
angle_coeff  318      38.312859    108.731000
angle_coeff  319     293.453872    106.877000
angle_coeff  320      77.748327    109.913000
angle_coeff  321      76.695268    110.495000
angle_coeff  322      57.253585    109.567000
angle_coeff  323      57.902725    109.080000
angle_coeff  324      36.301625    110.821000
angle_coeff  325     191.035612    112.915000
angle_coeff  326      58.586759    108.538000
angle_coeff  327      58.247849    108.763000
angle_coeff  328      57.203394    109.466000
angle_coeff  329      57.666109    109.095000
angle_coeff  330      38.838193    107.942000
angle_coeff  331     196.925908    111.687000
angle_coeff  332      58.489962    108.833000
angle_coeff  333      58.869025    108.610000
angle_coeff  334      56.885994    109.555000
angle_coeff  335      57.050908    109.483000
angle_coeff  336      38.296367    108.614000
angle_coeff  337     138.371176    109.362000
angle_coeff  338     150.832696    111.512000
angle_coeff  339      75.948853    111.251000
angle_coeff  340      58.946463    107.950000
angle_coeff  341      58.027008    108.656000
angle_coeff  342      38.551625    108.008000
angle_coeff  343     193.479685    112.072000
angle_coeff  344      57.891969    108.947000
angle_coeff  345      57.905832    108.842000
angle_coeff  346      56.769598    109.714000
angle_coeff  347      57.622610    108.976000
angle_coeff  348      38.809273    108.209000
angle_coeff  349      98.903681    111.083000
angle_coeff  350      57.225382    109.268000
angle_coeff  351      56.894598    109.571000
angle_coeff  352      57.210803    109.264000
angle_coeff  353      57.519837    109.084000
angle_coeff  354      38.427342    108.528000
angle_coeff  355      57.578394    109.569000
angle_coeff  356      56.398423    110.502000
angle_coeff  357      56.976338    110.082000
angle_coeff  358      38.365918    108.680000
angle_coeff  359      38.649618    108.420000
angle_coeff  360      37.626912    109.546000
angle_coeff  361     137.509321    109.847000
angle_coeff  362      76.195029    111.282000
angle_coeff  363      77.157505    110.897000
angle_coeff  364      57.315010    109.226000
angle_coeff  365     122.273423    106.622000
angle_coeff  366      37.844407    108.841000
angle_coeff  367     192.512189    112.374000
angle_coeff  368      58.543738    108.475000
angle_coeff  369      57.600621    109.154000
angle_coeff  370      57.768881    108.910000
angle_coeff  371      56.379302    109.946000
angle_coeff  372      39.015774    107.868000
angle_coeff  373     100.189293    110.522000
angle_coeff  374      57.034895    109.322000
angle_coeff  375      56.951004    109.416000
angle_coeff  376      57.191683    109.326000
angle_coeff  377      56.684990    109.740000
angle_coeff  378      38.435229    108.481000
angle_coeff  379     294.604924    106.701000
angle_coeff  380      77.326960    110.093000
angle_coeff  381      76.354685    110.673000
angle_coeff  382      57.056166    109.645000
angle_coeff  383      57.660134    109.226000
angle_coeff  384      36.585086    110.424000
angle_coeff  385     193.170889    112.686000
angle_coeff  386      58.147467    108.819000
angle_coeff  387      58.195507    108.808000
angle_coeff  388      57.891491    109.296000
angle_coeff  389      58.407027    108.939000
angle_coeff  390      38.620698    108.193000
angle_coeff  391     196.567400    111.795000
angle_coeff  392      56.915870    109.576000
angle_coeff  393      57.249044    109.370000
angle_coeff  394      58.957696    108.571000
angle_coeff  395      58.606358    108.873000
angle_coeff  396      38.411090    108.595000
angle_coeff  397      56.435229    110.526000
angle_coeff  398      57.084847    110.034000
angle_coeff  399      57.635038    109.570000
angle_coeff  400      37.481597    109.710000
angle_coeff  401      38.448375    108.613000
angle_coeff  402      38.720841    108.343000
angle_coeff  403      56.471080    110.503000
angle_coeff  404      57.146511    110.054000
angle_coeff  405      57.679015    109.584000
angle_coeff  406      37.519598    109.644000
angle_coeff  407      38.458413    108.551000
angle_coeff  408      38.639818    108.461000
angle_coeff  409     137.158222    109.744000
angle_coeff  410      75.811663    111.281000
angle_coeff  411     149.968929    111.813000
angle_coeff  412     119.495459    107.491000
angle_coeff  413      58.197180    108.657000
angle_coeff  414      38.963193    107.713000
angle_coeff  415     189.785373    112.824000
angle_coeff  416      58.147467    108.865000
angle_coeff  417      58.464866    108.527000
angle_coeff  418      56.826721    109.542000
angle_coeff  419      57.354685    109.037000
angle_coeff  420      39.165153    107.924000
angle_coeff  421      99.679971    110.523000
angle_coeff  422      57.195507    109.123000
angle_coeff  423      56.450287    109.666000
angle_coeff  424      56.929971    109.296000
angle_coeff  425      56.932361    109.268000
angle_coeff  426      37.910134    108.941000
angle_coeff  427     298.518642    106.369000
angle_coeff  428      76.142208    110.876000
angle_coeff  429      78.942878    109.433000
angle_coeff  430      57.612333    109.307000
angle_coeff  431      57.098470    109.780000
angle_coeff  432      36.095602    110.967000
angle_coeff  433     191.665153    112.989000
angle_coeff  434      59.651530    108.035000
angle_coeff  435      57.855641    109.164000
angle_coeff  436      58.406549    108.962000
angle_coeff  437      57.249044    109.646000
angle_coeff  438      39.166587    107.910000
angle_coeff  439     196.666587    111.786000
angle_coeff  440      58.709608    108.827000
angle_coeff  441      58.849665    108.710000
angle_coeff  442      57.368547    109.234000
angle_coeff  443      56.873088    109.595000
angle_coeff  444      38.377629    108.630000
angle_coeff  445      56.616635    110.276000
angle_coeff  446      57.507648    109.543000
angle_coeff  447      56.294455    110.491000
angle_coeff  448      38.452438    108.605000
angle_coeff  449      37.802103    109.319000
angle_coeff  450      38.445507    108.563000
angle_coeff  451     293.145554    106.838000
angle_coeff  452      76.554015    110.528000
angle_coeff  453      77.739245    109.952000
angle_coeff  454      57.388145    109.296000
angle_coeff  455      57.265774    109.460000
angle_coeff  456      36.388145    110.682000
angle_coeff  457     191.343212    112.756000
angle_coeff  458      57.920172    108.923000
angle_coeff  459      58.418021    108.576000
angle_coeff  460      58.012189    108.868000
angle_coeff  461      57.098948    109.571000
angle_coeff  462      38.841061    108.038000
angle_coeff  463     101.023423    110.450000
angle_coeff  464      57.383843    109.376000
angle_coeff  465      57.968690    109.007000
angle_coeff  466      57.303298    109.378000
angle_coeff  467      57.802342    109.071000
angle_coeff  468      37.581023    109.543000
angle_coeff  469     140.503107    108.891000
angle_coeff  470     148.382887    112.914000
angle_coeff  471      81.854685    108.592000
angle_coeff  472      57.416587    109.182000
angle_coeff  473      56.563576    109.730000
angle_coeff  474      79.182122    107.495000
angle_coeff  475     196.015057    111.505000
angle_coeff  476      56.294694    109.863000
angle_coeff  477      57.129541    109.323000
angle_coeff  478      58.317161    108.530000
angle_coeff  479      56.586998    109.927000
angle_coeff  480      39.269120    107.608000
angle_coeff  481     198.206023    111.320000
angle_coeff  482      98.988528    111.424000
angle_coeff  483      58.582935    108.691000
angle_coeff  484      58.461520    108.831000
angle_coeff  485      56.395315    109.944000
angle_coeff  486      57.155115    109.417000
angle_coeff  487      38.422562    108.475000
angle_coeff  488     293.366157    106.830000
angle_coeff  489      76.468212    110.597000
angle_coeff  490      77.771750    109.897000
angle_coeff  491      57.363289    109.351000
angle_coeff  492      57.309034    109.411000
angle_coeff  493      36.364723    110.669000
angle_coeff  494     191.701482    112.763000
angle_coeff  495      57.914197    108.946000
angle_coeff  496      58.483509    108.538000
angle_coeff  497      58.056644    108.925000
angle_coeff  498      57.163719    109.606000
angle_coeff  499      38.901530    107.948000
angle_coeff  500     101.492591    110.357000
angle_coeff  501      57.899618    109.002000
angle_coeff  502      57.298757    109.435000
angle_coeff  503      58.049474    109.005000
angle_coeff  504      57.381931    109.488000
angle_coeff  505      37.554254    109.539000
angle_coeff  506     141.174713    109.209000
angle_coeff  507      76.504302    111.129000
angle_coeff  508     151.461042    111.613000
angle_coeff  509      59.752390    107.938000
angle_coeff  510      59.788719    107.951000
angle_coeff  511      37.601577    108.880000
angle_coeff  512     195.889579    112.059000
angle_coeff  513      59.017925    108.640000
angle_coeff  514      60.008365    107.968000
angle_coeff  515      56.883843    109.621000
angle_coeff  516      57.573136    109.137000
angle_coeff  517      37.620698    109.371000
angle_coeff  518     198.930927    111.089000
angle_coeff  519     195.952916    111.782000
angle_coeff  520      57.189771    109.319000
angle_coeff  521      56.541109    109.810000
angle_coeff  522      58.744025    108.634000
angle_coeff  523      58.682361    108.677000
angle_coeff  524      38.463193    108.556000
angle_coeff  525      96.394837    120.022000
angle_coeff  526     144.092495    117.367000
angle_coeff  527      90.977772    119.980000
angle_coeff  528      56.439532    110.395000
angle_coeff  529      57.746415    109.357000
angle_coeff  530      56.100860    110.628000
angle_coeff  531      38.441444    108.605000
angle_coeff  532      37.731597    109.375000
angle_coeff  533      38.568834    108.430000
angle_coeff  534     136.478967    120.015000
angle_coeff  535      56.726577    110.255000
angle_coeff  536      56.082457    110.642000
angle_coeff  537      57.665392    109.450000
angle_coeff  538      37.690488    109.402000
angle_coeff  539      38.757887    108.307000
angle_coeff  540      38.195507    108.735000
angle_coeff  541     136.886233    109.858000
angle_coeff  542     150.343929    111.531000
angle_coeff  543      75.731836    111.274000
angle_coeff  544      58.156788    108.570000
angle_coeff  545     120.680927    107.066000
angle_coeff  546      38.017686    108.397000
angle_coeff  547     193.445746    112.234000
angle_coeff  548      58.069073    108.874000
angle_coeff  549      58.050191    108.995000
angle_coeff  550      57.823375    108.967000
angle_coeff  551      56.880019    109.784000
angle_coeff  552      39.257170    107.886000
angle_coeff  553     198.589388    110.994000
angle_coeff  554     194.924474    111.918000
angle_coeff  555      57.101338    109.261000
angle_coeff  556      56.003585    110.029000
angle_coeff  557      59.213910    108.380000
angle_coeff  558      58.386233    108.907000
angle_coeff  559      38.758126    108.261000
angle_coeff  560     296.688815    106.397000
angle_coeff  561      76.777008    110.473000
angle_coeff  562      77.425191    110.124000
angle_coeff  563      57.374283    109.330000
angle_coeff  564      56.878585    109.714000
angle_coeff  565      36.350143    110.704000
angle_coeff  566     190.073853    113.116000
angle_coeff  567      57.908939    108.908000
angle_coeff  568      58.589866    108.412000
angle_coeff  569      58.012906    108.950000
angle_coeff  570      57.329828    109.465000
angle_coeff  571      38.933556    107.857000
angle_coeff  572     101.295411    110.337000
angle_coeff  573      57.528203    109.115000
angle_coeff  574      57.346319    109.282000
angle_coeff  575      57.973709    109.059000
angle_coeff  576      57.637189    109.341000
angle_coeff  577      37.441683    109.694000
angle_coeff  578     137.024857    109.958000
angle_coeff  579      75.987094    111.446000
angle_coeff  580      77.407505    110.814000
angle_coeff  581      57.498566    109.052000
angle_coeff  582     122.363767    106.565000
angle_coeff  583      37.900096    108.868000
angle_coeff  584     192.102772    112.410000
angle_coeff  585      58.581262    108.389000
angle_coeff  586      57.576960    109.138000
angle_coeff  587      57.502151    109.093000
angle_coeff  588      56.323853    109.998000
angle_coeff  589      39.229446    107.687000
angle_coeff  590     100.053537    110.573000
angle_coeff  591      57.140774    109.252000
angle_coeff  592      57.034417    109.342000
angle_coeff  593      57.291587    109.237000
angle_coeff  594      56.652725    109.731000
angle_coeff  595      38.227055    108.675000
angle_coeff  596     295.907744    106.661000
angle_coeff  597      77.491157    110.085000
angle_coeff  598      76.425908    110.670000
angle_coeff  599      57.621654    109.400000
angle_coeff  600      58.182839    108.978000
angle_coeff  601      36.172801    110.939000
angle_coeff  602     195.302820    112.340000
angle_coeff  603      58.475382    108.748000
angle_coeff  604      58.136950    108.986000
angle_coeff  605      57.676386    109.499000
angle_coeff  606      58.043260    109.215000
angle_coeff  607      38.876195    107.953000
angle_coeff  608     197.011950    111.604000