#Thermal Conductivity of ZIF
units              real
dimension          3
boundary           p p p
atom_style         full 
bond_style         harmonic
angle_style        harmonic
dihedral_style     hybrid harmonic fourier
improper_style    cvff
#
read_data          IRMOF9-C20-last.data
#
bond_coeff    1       177.545000      1.950000
bond_coeff    2       177.545000      1.960000
bond_coeff    3       177.545000      1.920000
bond_coeff    4       177.545000      1.940000
bond_coeff    5       177.545000      1.910000
bond_coeff    6       177.545000      1.930000
bond_coeff    7       673.655000      1.280000
bond_coeff    8       764.180000      1.270000
bond_coeff    9       764.180000      1.250000
bond_coeff    10      673.655000      1.290000
bond_coeff    11      764.180000      1.280000
bond_coeff    12      459.810000      1.440000
bond_coeff    13      523.760000      1.360000
bond_coeff    14      462.655000      1.380000
bond_coeff    15      462.655000      1.410000
bond_coeff    16      357.440000      0.950000
bond_coeff    17      523.760000      1.350000
bond_coeff    18      391.670000      1.480000
bond_coeff    19      523.760000      1.300000
bond_coeff    20      462.655000      1.420000
bond_coeff    21      462.655000      1.400000
bond_coeff    22      389.260000      1.470000
bond_coeff    23      389.260000      1.580000
bond_coeff    24      391.670000      1.490000
bond_coeff    25      629.590000      1.280000
bond_coeff    26      523.760000      1.330000
bond_coeff    27      462.655000      1.440000
bond_coeff    28      389.260000      1.460000
bond_coeff    29      389.260000      1.440000
bond_coeff    30      629.590000      1.290000
bond_coeff    31      523.760000      1.310000
bond_coeff    32      389.260000      1.480000
bond_coeff    33      517.345000      1.300000
bond_coeff    34      545.920000      1.350000
bond_coeff    35      482.230000      1.430000
bond_coeff    36      354.485000      0.950000
bond_coeff    37      381.235000      0.950000
bond_coeff    38      576.635000      1.350000
bond_coeff    39      408.240000      1.470000
bond_coeff    40      462.655000      1.390000
bond_coeff    41       330.600143      1.100000
bond_coeff    42       300.900096      1.540000
#   
angle_coeff  1       131.300430    113.483000
angle_coeff  2       133.503346    113.887000
angle_coeff  3       167.729207    104.422000
angle_coeff  4       166.290392    105.759000
angle_coeff  5       141.767925    111.530000
angle_coeff  6        77.238050    108.253000
angle_coeff  7       161.214388    107.109000
angle_coeff  8        72.668260    111.065000
angle_coeff  9       141.023184    112.022000
angle_coeff  10       72.146511    110.429000
angle_coeff  11       74.661090    108.534000
angle_coeff  12       79.569073    107.872000
angle_coeff  13      137.586520    113.333000
angle_coeff  14      169.309512    104.379000
angle_coeff  15      131.372371    113.454000
angle_coeff  16      167.638384    104.438000
angle_coeff  17      133.548040    113.867000
angle_coeff  18      167.605163    104.470000
angle_coeff  19      166.304971    105.747000
angle_coeff  20      131.488050    113.450000
angle_coeff  21      141.740201    111.562000
angle_coeff  22       77.246415    108.239000
angle_coeff  23      161.249522    107.075000
angle_coeff  24       72.663241    111.076000
angle_coeff  25       74.706262    108.535000
angle_coeff  26      137.768642    113.305000
angle_coeff  27      169.285134    104.408000
angle_coeff  28       72.080784    110.449000
angle_coeff  29      169.335325    104.357000
angle_coeff  30       79.529159    107.874000
angle_coeff  31       74.636711    108.554000
angle_coeff  32      169.325048    104.365000
angle_coeff  33      137.705545    113.305000
angle_coeff  34       45.950287    110.659000
angle_coeff  35       47.883365    108.699000
angle_coeff  36       46.657505    109.962000
angle_coeff  37       47.660134    108.818000
angle_coeff  38       74.319073    132.054000
angle_coeff  39       76.439293    131.324000
angle_coeff  40       80.789914    128.537000
angle_coeff  41       71.877868    134.901000
angle_coeff  42       83.516252    127.806000
angle_coeff  43       79.223709    126.200000
angle_coeff  44       71.103489    135.877000
angle_coeff  45       79.197180    126.249000
angle_coeff  46       45.944551    110.682000
angle_coeff  47       46.692878    109.950000
angle_coeff  48       74.279876    132.092000
angle_coeff  49       76.404398    131.322000
angle_coeff  50       80.902247    128.503000
angle_coeff  51       71.879541    134.875000
angle_coeff  52       83.430210    127.848000
angle_coeff  53       79.271511    126.253000
angle_coeff  54       71.114484    135.827000
angle_coeff  55       74.300430    132.110000
angle_coeff  56       80.865201    128.520000
angle_coeff  57       71.896750    134.923000
angle_coeff  58       76.475382    131.303000
angle_coeff  59      372.480880    124.573000
angle_coeff  60      299.825526    116.207000
angle_coeff  61      190.483987    119.219000
angle_coeff  62      140.980880    120.304000
angle_coeff  63      191.746415    123.701000
angle_coeff  64      249.846558    115.767000
angle_coeff  65      144.682839    120.751000
angle_coeff  66       91.917782    119.554000
angle_coeff  67       84.397228    119.695000
angle_coeff  68      211.730880    123.138000
angle_coeff  69       87.619503    119.715000
angle_coeff  70      142.434273    117.142000
angle_coeff  71      210.244742    122.455000
angle_coeff  72       85.813576    118.761000
angle_coeff  73       93.616396    118.784000
angle_coeff  74      148.465583    120.536000
angle_coeff  75       90.465105    119.729000
angle_coeff  76       87.552103    119.735000
angle_coeff  77      246.713671    116.348000
angle_coeff  78      133.383843    121.417000
angle_coeff  79      190.712476    122.107000
angle_coeff  80      142.859465    120.627000
angle_coeff  81      194.609226    122.807000
angle_coeff  82      274.602533    115.776000
angle_coeff  83      215.955784    123.090000
angle_coeff  84      101.663719    118.566000
angle_coeff  85       85.032027    118.344000
angle_coeff  86      208.486138    123.702000
angle_coeff  87       94.948136    118.167000
angle_coeff  88       88.814771    118.132000
angle_coeff  89      141.889579    119.706000
angle_coeff  90       82.076482    120.056000
angle_coeff  91       87.209369    120.238000
angle_coeff  92      149.735899    119.996000
angle_coeff  93       85.592973    120.038000
angle_coeff  94       91.447897    119.965000
angle_coeff  95      245.934034    116.664000
angle_coeff  96      132.284417    120.598000
angle_coeff  97      196.653442    122.413000
angle_coeff  98      391.533700    124.611000
angle_coeff  99      190.558317    118.163000
angle_coeff  100     292.891491    117.208000
angle_coeff  101     347.645315    131.335000
angle_coeff  102     277.725621    114.016000
angle_coeff  103     164.026530    123.534000
angle_coeff  104     404.919216     94.821000
angle_coeff  105     143.538719    120.436000
angle_coeff  106     462.717017     98.989000
angle_coeff  107     218.452438    117.616000
angle_coeff  108     186.192639    125.368000
angle_coeff  109     264.518881    117.016000
angle_coeff  110     140.722753    121.846000
angle_coeff  111      95.894598    119.139000
angle_coeff  112      81.908700    119.015000
angle_coeff  113     151.595124    121.352000
angle_coeff  114      95.513384    119.277000
angle_coeff  115      88.434990    119.372000
angle_coeff  116     144.504063    120.642000
angle_coeff  117      80.767686    119.720000
angle_coeff  118      95.118308    119.638000
angle_coeff  119     212.541109    123.294000
angle_coeff  120      90.574809    118.233000
angle_coeff  121      93.580067    118.474000
angle_coeff  122     264.195985    115.850000
angle_coeff  123     145.386950    119.113000
angle_coeff  124     187.787524    125.037000
angle_coeff  125     358.959847    125.529000
angle_coeff  126     296.003346    115.593000
angle_coeff  127     185.238767    118.878000
angle_coeff  128     155.566205    120.568000
angle_coeff  129      85.990679    119.610000
angle_coeff  130      98.418499    119.821000
angle_coeff  131     247.182600    124.163000
angle_coeff  132     157.885755    117.906000
angle_coeff  133     153.319551    117.930000
angle_coeff  134     299.465105    116.227000
angle_coeff  135     190.414436    119.200000
angle_coeff  136     140.975860    120.306000
angle_coeff  137     191.682839    123.682000
angle_coeff  138     249.964866    115.779000
angle_coeff  139     144.833413    120.737000
angle_coeff  140      92.100621    119.541000
angle_coeff  141      84.408222    119.722000
angle_coeff  142     211.803537    123.159000
angle_coeff  143      87.590105    119.691000
angle_coeff  144     142.460803    117.144000
angle_coeff  145     148.631692    120.519000
angle_coeff  146      90.440727    119.794000
angle_coeff  147      87.635994    119.686000
angle_coeff  148      85.611138    120.053000
angle_coeff  149      91.519837    119.951000
angle_coeff  150     277.723948    114.019000
angle_coeff  151     124.381692    120.635000
angle_coeff  152     164.089149    123.517000
angle_coeff  153     252.899857    115.801000
angle_coeff  154     178.235899    123.117000
angle_coeff  155     143.349665    120.474000
angle_coeff  156     255.031788    116.389000
angle_coeff  157     218.664914    117.556000
angle_coeff  158     186.423518    125.331000
angle_coeff  159     264.013145    117.112000
angle_coeff  160     140.803776    121.747000
angle_coeff  161      95.882409    119.169000
angle_coeff  162      81.751434    119.084000
angle_coeff  163     151.796128    121.315000
angle_coeff  164      95.662285    119.284000
angle_coeff  165      88.462476    119.402000
angle_coeff  166     144.410851    120.645000
angle_coeff  167      80.834369    119.628000
angle_coeff  168      95.071463    119.727000
angle_coeff  169     264.123566    115.888000
angle_coeff  170     145.578394    119.075000
angle_coeff  171     359.475860    125.508000
angle_coeff  172     296.137189    115.613000
angle_coeff  173     238.924713    123.119000
angle_coeff  174      98.126912    118.357000
angle_coeff  175      99.915870    118.523000
angle_coeff  176     153.732314    119.775000
angle_coeff  177      82.452438    120.281000
angle_coeff  178      96.910612    119.944000
angle_coeff  179     372.610660    124.514000
angle_coeff  180     299.365679    116.285000
angle_coeff  181     190.425191    119.200000
angle_coeff  182     141.100382    120.338000
angle_coeff  183     191.689532    123.678000
angle_coeff  184     250.107314    115.749000
angle_coeff  185     144.829828    120.734000
angle_coeff  186      92.135038    119.580000
angle_coeff  187      84.383843    119.685000
angle_coeff  188     211.812141    123.152000
angle_coeff  189      87.510755    119.678000
angle_coeff  190     142.549235    117.165000
angle_coeff  191     210.303059    122.474000
angle_coeff  192      85.834847    118.693000
angle_coeff  193      93.721797    118.833000
angle_coeff  194     148.694790    120.536000
angle_coeff  195      90.625478    119.705000
angle_coeff  196      87.444551    119.759000
angle_coeff  197     247.107553    116.345000
angle_coeff  198     133.336520    121.468000
angle_coeff  199     190.760755    122.059000
angle_coeff  200     142.611377    120.673000
angle_coeff  201     194.575048    122.754000
angle_coeff  202     274.342495    115.792000
angle_coeff  203     216.064054    123.062000
angle_coeff  204     101.782983    118.511000
angle_coeff  205      84.889101    118.427000
angle_coeff  206     142.216539    118.157000
angle_coeff  207     123.315249    119.984000
angle_coeff  208     137.294216    119.953000
angle_coeff  209     196.361138    122.469000
angle_coeff  210     391.395076    124.671000
angle_coeff  211     190.447180    118.189000
angle_coeff  212     293.154637    117.121000
angle_coeff  213     347.812380    131.252000
angle_coeff  214     277.359704    114.060000
angle_coeff  215     164.053059    123.508000
angle_coeff  216     124.499283    120.579000
angle_coeff  217     252.343212    115.868000
angle_coeff  218     178.173518    123.098000
angle_coeff  219     254.638145    116.446000
angle_coeff  220     264.454828    117.053000
angle_coeff  221      95.946224    119.086000
angle_coeff  222      81.786568    119.068000
angle_coeff  223      95.614006    119.336000
angle_coeff  224      88.599426    119.349000
angle_coeff  225      80.888862    119.668000
angle_coeff  226      95.070746    119.690000
angle_coeff  227     212.262428    123.329000
angle_coeff  228      93.570268    118.439000
angle_coeff  229     264.241157    115.815000
angle_coeff  230     187.552820    125.072000
angle_coeff  231     359.392686    125.548000
angle_coeff  232     185.483509    118.839000
angle_coeff  233     155.522945    120.559000
angle_coeff  234      85.922801    119.620000
angle_coeff  235     144.673757    120.752000
angle_coeff  236      84.334130    119.668000
angle_coeff  237     210.219885    122.458000
angle_coeff  238      85.793021    118.665000
angle_coeff  239      93.628585    118.876000
angle_coeff  240     148.527486    120.553000
angle_coeff  241      90.563815    119.778000
angle_coeff  242      87.575287    119.669000
angle_coeff  243     246.998805    116.330000
angle_coeff  244     133.392208    121.483000
angle_coeff  245     190.767925    122.056000
angle_coeff  246     142.657983    120.693000
angle_coeff  247     194.597514    122.740000
angle_coeff  248     274.149618    115.780000
angle_coeff  249     101.891730    118.494000
angle_coeff  250      84.914197    118.444000
angle_coeff  251     142.245698    118.093000
angle_coeff  252     124.538480    120.598000
angle_coeff  253     164.235660    123.462000
angle_coeff  254     252.470602    115.892000
angle_coeff  255     143.488050    120.416000
angle_coeff  256     254.651052    116.445000
angle_coeff  257     218.373805    117.593000
angle_coeff  258     264.070029    117.076000
angle_coeff  259     140.778203    121.784000
angle_coeff  260      95.929254    119.080000
angle_coeff  261      81.746893    119.136000
angle_coeff  262     144.383604    120.682000
angle_coeff  263      80.928298    119.598000
angle_coeff  264      94.923757    119.720000
angle_coeff  265     239.246176    123.082000
angle_coeff  266      98.130258    118.393000
angle_coeff  267     372.807600    124.533000
angle_coeff  268     299.232553    116.266000
angle_coeff  269      85.903442    118.709000
angle_coeff  270      93.521989    118.836000
angle_coeff  271      84.943834    118.399000
angle_coeff  272     141.997610    119.667000
angle_coeff  273      82.185468    120.031000
angle_coeff  274      87.169216    120.302000
angle_coeff  275     149.921845    119.982000
angle_coeff  276      85.690966    119.997000
angle_coeff  277      91.496654    120.021000
angle_coeff  278     245.850143    116.720000
angle_coeff  279     132.329111    120.540000
angle_coeff  280     196.637189    122.420000
angle_coeff  281     391.768642    124.630000
angle_coeff  282     190.542543    118.164000
angle_coeff  283     292.760038    117.187000
angle_coeff  284     155.495937    120.589000
angle_coeff  285      85.881931    119.678000
angle_coeff  286      98.599665    119.732000
angle_coeff  287     246.938815    124.181000
angle_coeff  288     157.881214    117.869000
angle_coeff  289     153.253346    117.950000
angle_coeff  290     299.592495    116.247000
angle_coeff  291      85.672084    119.983000
angle_coeff  292      91.424235    120.035000
angle_coeff  293     190.655593    119.181000
angle_coeff  294     140.990440    120.374000
angle_coeff  295     250.316444    115.711000
angle_coeff  296     144.627390    120.807000
angle_coeff  297      92.175908    119.516000
angle_coeff  298      84.347514    119.677000
angle_coeff  299     210.221080    122.461000
angle_coeff  300      85.860421    118.681000
angle_coeff  301      93.560468    118.858000
angle_coeff  302     148.419455    120.586000
angle_coeff  303      87.629541    119.636000
angle_coeff  304     247.078394    116.278000
angle_coeff  305     133.394598    121.485000
angle_coeff  306     190.709847    122.109000
angle_coeff  307     142.839149    120.673000
angle_coeff  308     194.671367    122.762000
angle_coeff  309     137.259321    120.022000
angle_coeff  310     196.595602    122.454000
angle_coeff  311     155.465344    120.536000
angle_coeff  312      85.935468    119.693000
angle_coeff  313      98.509799    119.770000
angle_coeff  314     246.879541    124.121000
angle_coeff  315     157.553776    117.979000
angle_coeff  316     153.269598    117.899000
angle_coeff  317     144.783222    120.789000
angle_coeff  318     210.303059    122.476000
angle_coeff  319      93.653681    118.814000
angle_coeff  320     148.586759    120.569000
angle_coeff  321      87.498805    119.726000
angle_coeff  322     247.184990    116.293000
angle_coeff  323     133.339388    121.471000
angle_coeff  324     190.702677    122.112000
angle_coeff  325     142.792304    120.654000
angle_coeff  326     194.647706    122.776000
angle_coeff  327     239.135277    123.063000
angle_coeff  328      98.116874    118.386000
angle_coeff  329      99.943117    118.550000
angle_coeff  330     153.665870    119.756000
angle_coeff  331      82.380497    120.247000
angle_coeff  332      96.757170    119.996000
angle_coeff  333        39.400096    107.580000
angle_coeff  334        46.299952    109.800000
angle_coeff  335        62.900096    111.510000
#
dihedral_coeff   1    harmonic     0.500000          -1           6
dihedral_coeff   2    harmonic     1.250000          -1           2
dihedral_coeff   3    harmonic     3.368547          -1           2
dihedral_coeff   4    harmonic     4.871654          -1           2
dihedral_coeff   5    harmonic     1.059512           1           3
dihedral_coeff   6    fourier      1      0.150096   3    0.0000
dihedral_coeff   7    fourier      1      0.159895   3    0.0000
dihedral_coeff   8    fourier      3      0.179971   3    0.0000      0.250000   2  180.0000      0.200048   1  180.0000
dihedral_coeff   9    fourier      2      0.179971   3    0.0000      0.250000   2  180.0000
dihedral_coeff   10   fourier      1      0.179971   3    0.0000

#
improper_coeff   1          2.000000          -1           1 #
#
pair_style       lj/cut/coul/long  13  #LJ力和库仑力的截断半径均为14
#special_bonds lj 0.0 0.0 0.5 coul 0.0 0.0 0.8333
kspace_style	 pppm   0.0001     #定义远程求解器   精度0.0001
#
pair_coeff		 1 1     0.124000   2.461553  # Zn3+2
pair_coeff		 2 2     0.060000   3.118146  # O_3
pair_coeff		 3 3     0.105000   3.430851  # C_2
pair_coeff		 4 4     0.105000   3.430851  # C_R
pair_coeff		 5 5     0.105000   3.430851  # C_1
pair_coeff		 6 6     0.044000   2.571134  # H_
pair_coeff		 7 7     0.015700   2.649533  # hc
pair_coeff            8 8     0.109400   3.399670  # c3
#
pair_modify      mix arithmetic       #相互作用的方法  决定计算混合系数的公式
#
group Zn3+2  type  1
group O_3    type  2
group C_2    type  3
group C_R    type  4
group C_1    type  5
group H_     type  6
group IRMOF3 type 1:6
group hc     type  7
group c3     type  8
group C20    type 7:8
#
